<number of tasks>
50

<cycle time>
1000

<order strength>
0.195


<task times>
1 108
2 79
3 31
4 242
5 138
6 226
7 237
8 97
9 318
10 186
11 207
12 223
13 23
14 264
15 50
16 178
17 218
18 100
19 56
20 104
21 75
22 30
23 27
24 207
25 201
26 103
27 150
28 65
29 122
30 138
31 168
32 71
33 120
34 144
35 129
36 274
37 102
38 162
39 114
40 134
41 90
42 114
43 174
44 35
45 285
46 128
47 113
48 161
49 168
50 101

<precedence relations>
1,4
1,5
1,8
1,9
2,6
2,7
4,10
5,11
6,12
6,15
7,13
7,17
7,24
8,22
8,48
9,14
9,16
9,39
9,46
10,22
11,19
12,18
13,20
14,24
17,21
17,23
17,29
18,30
19,26
20,28
21,25
21,27
21,31
21,48
22,29
23,32
24,29
24,38
24,50
25,33
26,36
27,37
28,38
29,34
30,40
31,35
32,39
32,41
32,47
33,45
34,42
35,43
36,44
37,46
38,47
38,48
42,49
43,50
44,49

<end>
